p edge 35 66
e 1 2
e 1 3
e 1 4
e 1 6
e 1 8
e 1 10
e 1 11
e 1 12
e 1 14
e 1 15
e 1 18
e 1 19
e 1 20
e 1 21
e 1 23
e 1 24
e 1 26
e 1 29
e 1 33
e 2 4
e 2 5
e 2 7
e 2 8
e 2 9
e 2 16
e 2 18
e 2 22
e 2 28
e 2 29
e 3 5
e 3 17
e 4 9
e 5 6
e 5 7
e 5 13
e 5 14
e 5 16
e 5 17
e 5 19
e 5 20
e 5 24
e 5 31
e 6 12
e 6 13
e 6 23
e 6 25
e 6 31
e 6 34
e 6 35
e 7 10
e 7 30
e 7 32
e 9 11
e 9 15
e 9 21
e 9 27
e 11 33
e 14 27
e 17 22
e 17 34
e 20 25
e 22 26
e 22 35
e 25 28
e 27 30
e 30 32
